Pt Cu 
 1.0000000000000000
     7.8399999999999999    0.0000000000000000    0.0000000000000000
     0.0000000000000000    5.5437171645025325    0.0000000000000000
     0.0000000000000000    0.0000000000000000   15.3859292911256329
 Pt  Cu 
   8   2
Cartesian
  1.9600000000000000  1.3859292911256331  7.0000000000000000
  5.8799999999999999  1.3859292911256331  7.0000000000000000
  1.9600000000000000  4.1577878733768996  7.0000000000000000
  5.8799999999999999  4.1577878733768996  7.0000000000000000
  0.0000000000000000  0.0000000000000000  8.3859292911256329
  3.9199999999999999  0.0000000000000000  8.3859292911256329
  0.0000000000000000  2.7718585822512662  8.3859292911256329
  3.9199999999999999  2.7718585822512662  8.3859292911256329
  3.9199999999999999  2.7718585822512662 10.8859292911256329
  3.9199999999999999  2.7718585822512662 13.3859292911256329
