Pt Cu 
 1.0000000000000000
    15.6799999999999997    0.0000000000000000    0.0000000000000000
     0.0000000000000000   13.8592929112563308    0.0000000000000000
     0.0000000000000000    0.0000000000000000   32.7718585822512694
 Pt  Cu 
  60   2
Cartesian
  0.0000000000000000  0.0000000000000000 15.0000000000000018
  3.9199999999999999  0.0000000000000000 15.0000000000000018
  7.8399999999999999  0.0000000000000000 15.0000000000000018
 11.7599999999999998  0.0000000000000000 15.0000000000000018
  0.0000000000000000  2.7718585822512662 15.0000000000000018
  3.9199999999999999  2.7718585822512662 15.0000000000000018
  7.8399999999999999  2.7718585822512662 15.0000000000000018
 11.7599999999999998  2.7718585822512662 15.0000000000000018
  0.0000000000000000  5.5437171645025325 15.0000000000000018
  3.9199999999999999  5.5437171645025325 15.0000000000000018
  7.8399999999999999  5.5437171645025325 15.0000000000000018
 11.7599999999999998  5.5437171645025325 15.0000000000000018
  0.0000000000000000  8.3155757467537992 15.0000000000000018
  3.9199999999999999  8.3155757467537992 15.0000000000000018
  7.8399999999999999  8.3155757467537992 15.0000000000000018
 11.7599999999999998  8.3155757467537992 15.0000000000000018
  0.0000000000000000 11.0874343290050650 15.0000000000000018
  3.9199999999999999 11.0874343290050650 15.0000000000000018
  7.8399999999999999 11.0874343290050650 15.0000000000000018
 11.7599999999999998 11.0874343290050650 15.0000000000000018
  1.9600000000000000  1.3859292911256331 16.3859292911256347
  5.8799999999999999  1.3859292911256331 16.3859292911256347
  9.8000000000000007  1.3859292911256331 16.3859292911256347
 13.7199999999999989  1.3859292911256331 16.3859292911256347
  1.9600000000000000  4.1577878733768996 16.3859292911256347
  5.8799999999999999  4.1577878733768996 16.3859292911256347
  9.8000000000000007  4.1577878733768996 16.3859292911256347
 13.7199999999999989  4.1577878733768996 16.3859292911256347
  1.9600000000000000  6.9296464556281654 16.3859292911256347
  5.8799999999999999  6.9296464556281654 16.3859292911256347
  9.8000000000000007  6.9296464556281654 16.3859292911256347
 13.7199999999999989  6.9296464556281654 16.3859292911256347
  1.9600000000000000  9.7015050378794321 16.3859292911256347
  5.8799999999999999  9.7015050378794321 16.3859292911256347
  9.8000000000000007  9.7015050378794321 16.3859292911256347
 13.7199999999999989  9.7015050378794321 16.3859292911256347
  1.9600000000000000 12.4733636201306979 16.3859292911256347
  5.8799999999999999 12.4733636201306979 16.3859292911256347
  9.8000000000000007 12.4733636201306979 16.3859292911256347
 13.7199999999999989 12.4733636201306979 16.3859292911256347
  0.0000000000000000  0.0000000000000000 17.7718585822512694
  3.9199999999999999  0.0000000000000000 17.7718585822512694
  7.8399999999999999  0.0000000000000000 17.7718585822512694
 11.7599999999999998  0.0000000000000000 17.7718585822512694
  0.0000000000000000  2.7718585822512662 17.7718585822512694
  3.9199999999999999  2.7718585822512662 17.7718585822512694
  7.8399999999999999  2.7718585822512662 17.7718585822512694
 11.7599999999999998  2.7718585822512662 17.7718585822512694
  0.0000000000000000  5.5437171645025325 17.7718585822512694
  3.9199999999999999  5.5437171645025325 17.7718585822512694
  7.8399999999999999  5.5437171645025325 17.7718585822512694
 11.7599999999999998  5.5437171645025325 17.7718585822512694
  0.0000000000000000  8.3155757467537992 17.7718585822512694
  3.9199999999999999  8.3155757467537992 17.7718585822512694
  7.8399999999999999  8.3155757467537992 17.7718585822512694
 11.7599999999999998  8.3155757467537992 17.7718585822512694
  0.0000000000000000 11.0874343290050650 17.7718585822512694
  3.9199999999999999 11.0874343290050650 17.7718585822512694
  7.8399999999999999 11.0874343290050650 17.7718585822512694
 11.7599999999999998 11.0874343290050650 17.7718585822512694
  7.8399999999999999  5.5437171645025325 20.2718585822512694
  7.8399999999999999  5.5437171645025325 22.7718585822512694
