Pt Cu Pt 
 1.0000000000000000
    23.5199999999999996    0.0000000000000000    0.0000000000000000
     0.0000000000000000   22.1748686580101300    0.0000000000000000
     0.0000000000000000    0.0000000000000000   15.3859292911256329
 Pt  Cu  Pt 
  48   2  48
Selective dynamics
Cartesian
  1.9600000000000000  1.3859292911256331  7.0000000000000000   F   F   F
  5.8799999999999999  1.3859292911256331  7.0000000000000000   F   F   F
  1.9600000000000000  4.1577878733768996  7.0000000000000000   F   F   F
  5.8799999999999999  4.1577878733768996  7.0000000000000000   F   F   F
  0.0000000000000000  0.0000000000000000  8.3859292911256329   T   T   T
  3.9199999999999999  0.0000000000000000  8.3859292911256329   T   T   T
  0.0000000000000000  2.7718585822512662  8.3859292911256329   T   T   T
  3.9199999999999999  2.7718585822512662  8.3859292911256329   T   T   T
  1.9600000000000000  6.9296464556281654  7.0000000000000000   F   F   F
  5.8799999999999999  6.9296464556281654  7.0000000000000000   F   F   F
  1.9600000000000000  9.7015050378794321  7.0000000000000000   F   F   F
  5.8799999999999999  9.7015050378794321  7.0000000000000000   F   F   F
  0.0000000000000000  5.5437171645025325  8.3859292911256329   T   T   T
  3.9199999999999999  5.5437171645025325  8.3859292911256329   T   T   T
  0.0000000000000000  8.3155757467537992  8.3859292911256329   T   T   T
  3.9199999999999999  8.3155757467537992  8.3859292911256329   T   T   T
  1.9600000000000000 12.4733636201306979  7.0000000000000000   F   F   F
  5.8799999999999999 12.4733636201306979  7.0000000000000000   F   F   F
  1.9600000000000000 15.2452222023819637  7.0000000000000000   F   F   F
  5.8799999999999999 15.2452222023819637  7.0000000000000000   F   F   F
  0.0000000000000000 11.0874343290050650  8.3859292911256329   T   T   T
  3.9199999999999999 11.0874343290050650  8.3859292911256329   T   T   T
  0.0000000000000000 13.8592929112563308  8.3859292911256329   T   T   T
  3.9199999999999999 13.8592929112563308  8.3859292911256329   T   T   T
  1.9600000000000000 18.0170807846332330  7.0000000000000000   F   F   F
  5.8799999999999999 18.0170807846332330  7.0000000000000000   F   F   F
  1.9600000000000000 20.7889393668844988  7.0000000000000000   F   F   F
  5.8799999999999999 20.7889393668844988  7.0000000000000000   F   F   F
  0.0000000000000000 16.6311514935075984  8.3859292911256329   T   T   T
  3.9199999999999999 16.6311514935075984  8.3859292911256329   T   T   T
  0.0000000000000000 19.4030100757588642  8.3859292911256329   T   T   T
  3.9199999999999999 19.4030100757588642  8.3859292911256329   T   T   T
  9.8000000000000007  1.3859292911256331  7.0000000000000000   F   F   F
 13.7199999999999989  1.3859292911256331  7.0000000000000000   F   F   F
  9.8000000000000007  4.1577878733768996  7.0000000000000000   F   F   F
 13.7199999999999989  4.1577878733768996  7.0000000000000000   F   F   F
  7.8399999999999999  0.0000000000000000  8.3859292911256329   T   T   T
 11.7599999999999998  0.0000000000000000  8.3859292911256329   T   T   T
  7.8399999999999999  2.7718585822512662  8.3859292911256329   T   T   T
 11.7599999999999998  2.7718585822512662  8.3859292911256329   T   T   T
  9.8000000000000007  6.9296464556281654  7.0000000000000000   F   F   F
 13.7199999999999989  6.9296464556281654  7.0000000000000000   F   F   F
  9.8000000000000007  9.7015050378794321  7.0000000000000000   F   F   F
 13.7199999999999989  9.7015050378794321  7.0000000000000000   F   F   F
  7.8399999999999999  5.5437171645025325  8.3859292911256329   T   T   T
 11.7599999999999998  5.5437171645025325  8.3859292911256329   T   T   T
  7.8399999999999999  8.3155757467537992  8.3859292911256329   T   T   T
 11.7599999999999998  8.3155757467537992  8.3859292911256329   T   T   T
 11.7599999999999998  8.3155757467537992 10.8859292911256329   T   T   T
 11.7599999999999998  8.3155757467537992 13.3859292911256329   T   T   T
  9.8000000000000007 12.4733636201306979  7.0000000000000000   F   F   F
 13.7199999999999989 12.4733636201306979  7.0000000000000000   F   F   F
  9.8000000000000007 15.2452222023819637  7.0000000000000000   F   F   F
 13.7199999999999989 15.2452222023819637  7.0000000000000000   F   F   F
  7.8399999999999999 11.0874343290050650  8.3859292911256329   T   T   T
 11.7599999999999998 11.0874343290050650  8.3859292911256329   T   T   T
  7.8399999999999999 13.8592929112563308  8.3859292911256329   T   T   T
 11.7599999999999998 13.8592929112563308  8.3859292911256329   T   T   T
  9.8000000000000007 18.0170807846332330  7.0000000000000000   F   F   F
 13.7199999999999989 18.0170807846332330  7.0000000000000000   F   F   F
  9.8000000000000007 20.7889393668844988  7.0000000000000000   F   F   F
 13.7199999999999989 20.7889393668844988  7.0000000000000000   F   F   F
  7.8399999999999999 16.6311514935075984  8.3859292911256329   T   T   T
 11.7599999999999998 16.6311514935075984  8.3859292911256329   T   T   T
  7.8399999999999999 19.4030100757588642  8.3859292911256329   T   T   T
 11.7599999999999998 19.4030100757588642  8.3859292911256329   T   T   T
 17.6400000000000006  1.3859292911256331  7.0000000000000000   F   F   F
 21.5599999999999987  1.3859292911256331  7.0000000000000000   F   F   F
 17.6400000000000006  4.1577878733768996  7.0000000000000000   F   F   F
 21.5599999999999987  4.1577878733768996  7.0000000000000000   F   F   F
 15.6799999999999997  0.0000000000000000  8.3859292911256329   T   T   T
 19.6000000000000014  0.0000000000000000  8.3859292911256329   T   T   T
 15.6799999999999997  2.7718585822512662  8.3859292911256329   T   T   T
 19.6000000000000014  2.7718585822512662  8.3859292911256329   T   T   T
 17.6400000000000006  6.9296464556281654  7.0000000000000000   F   F   F
 21.5599999999999987  6.9296464556281654  7.0000000000000000   F   F   F
 17.6400000000000006  9.7015050378794321  7.0000000000000000   F   F   F
 21.5599999999999987  9.7015050378794321  7.0000000000000000   F   F   F
 15.6799999999999997  5.5437171645025325  8.3859292911256329   T   T   T
 19.6000000000000014  5.5437171645025325  8.3859292911256329   T   T   T
 15.6799999999999997  8.3155757467537992  8.3859292911256329   T   T   T
 19.6000000000000014  8.3155757467537992  8.3859292911256329   T   T   T
 17.6400000000000006 12.4733636201306979  7.0000000000000000   F   F   F
 21.5599999999999987 12.4733636201306979  7.0000000000000000   F   F   F
 17.6400000000000006 15.2452222023819637  7.0000000000000000   F   F   F
 21.5599999999999987 15.2452222023819637  7.0000000000000000   F   F   F
 15.6799999999999997 11.0874343290050650  8.3859292911256329   T   T   T
 19.6000000000000014 11.0874343290050650  8.3859292911256329   T   T   T
 15.6799999999999997 13.8592929112563308  8.3859292911256329   T   T   T
 19.6000000000000014 13.8592929112563308  8.3859292911256329   T   T   T
 17.6400000000000006 18.0170807846332330  7.0000000000000000   F   F   F
 21.5599999999999987 18.0170807846332330  7.0000000000000000   F   F   F
 17.6400000000000006 20.7889393668844988  7.0000000000000000   F   F   F
 21.5599999999999987 20.7889393668844988  7.0000000000000000   F   F   F
 15.6799999999999997 16.6311514935075984  8.3859292911256329   T   T   T
 19.6000000000000014 16.6311514935075984  8.3859292911256329   T   T   T
 15.6799999999999997 19.4030100757588642  8.3859292911256329   T   T   T
 19.6000000000000014 19.4030100757588642  8.3859292911256329   T   T   T
