Pt 
 1.0000000000000000
    15.6799999999999997    0.0000000000000000    0.0000000000000000
     0.0000000000000000   13.8592929112563308    0.0000000000000000
     0.0000000000000000    0.0000000000000000   34.1577878733768969
 Pt 
  80
Cartesian
  1.9600000000000000  1.3859292911256331 14.9999999999999982
  5.8799999999999999  1.3859292911256331 14.9999999999999982
  9.8000000000000007  1.3859292911256331 14.9999999999999982
 13.7199999999999989  1.3859292911256331 14.9999999999999982
  1.9600000000000000  4.1577878733768996 14.9999999999999982
  5.8799999999999999  4.1577878733768996 14.9999999999999982
  9.8000000000000007  4.1577878733768996 14.9999999999999982
 13.7199999999999989  4.1577878733768996 14.9999999999999982
  1.9600000000000000  6.9296464556281654 14.9999999999999982
  5.8799999999999999  6.9296464556281654 14.9999999999999982
  9.8000000000000007  6.9296464556281654 14.9999999999999982
 13.7199999999999989  6.9296464556281654 14.9999999999999982
  1.9600000000000000  9.7015050378794321 14.9999999999999982
  5.8799999999999999  9.7015050378794321 14.9999999999999982
  9.8000000000000007  9.7015050378794321 14.9999999999999982
 13.7199999999999989  9.7015050378794321 14.9999999999999982
  1.9600000000000000 12.4733636201306979 14.9999999999999982
  5.8799999999999999 12.4733636201306979 14.9999999999999982
  9.8000000000000007 12.4733636201306979 14.9999999999999982
 13.7199999999999989 12.4733636201306979 14.9999999999999982
  0.0000000000000000  0.0000000000000000 16.3859292911256311
  3.9199999999999999  0.0000000000000000 16.3859292911256311
  7.8399999999999999  0.0000000000000000 16.3859292911256311
 11.7599999999999998  0.0000000000000000 16.3859292911256311
  0.0000000000000000  2.7718585822512662 16.3859292911256311
  3.9199999999999999  2.7718585822512662 16.3859292911256311
  7.8399999999999999  2.7718585822512662 16.3859292911256311
 11.7599999999999998  2.7718585822512662 16.3859292911256311
  0.0000000000000000  5.5437171645025325 16.3859292911256311
  3.9199999999999999  5.5437171645025325 16.3859292911256311
  7.8399999999999999  5.5437171645025325 16.3859292911256311
 11.7599999999999998  5.5437171645025325 16.3859292911256311
  0.0000000000000000  8.3155757467537992 16.3859292911256311
  3.9199999999999999  8.3155757467537992 16.3859292911256311
  7.8399999999999999  8.3155757467537992 16.3859292911256311
 11.7599999999999998  8.3155757467537992 16.3859292911256311
  0.0000000000000000 11.0874343290050650 16.3859292911256311
  3.9199999999999999 11.0874343290050650 16.3859292911256311
  7.8399999999999999 11.0874343290050650 16.3859292911256311
 11.7599999999999998 11.0874343290050650 16.3859292911256311
  1.9600000000000000  1.3859292911256331 17.7718585822512658
  5.8799999999999999  1.3859292911256331 17.7718585822512658
  9.8000000000000007  1.3859292911256331 17.7718585822512658
 13.7199999999999989  1.3859292911256331 17.7718585822512658
  1.9600000000000000  4.1577878733768996 17.7718585822512658
  5.8799999999999999  4.1577878733768996 17.7718585822512658
  9.8000000000000007  4.1577878733768996 17.7718585822512658
 13.7199999999999989  4.1577878733768996 17.7718585822512658
  1.9600000000000000  6.9296464556281654 17.7718585822512658
  5.8799999999999999  6.9296464556281654 17.7718585822512658
  9.8000000000000007  6.9296464556281654 17.7718585822512658
 13.7199999999999989  6.9296464556281654 17.7718585822512658
  1.9600000000000000  9.7015050378794321 17.7718585822512658
  5.8799999999999999  9.7015050378794321 17.7718585822512658
  9.8000000000000007  9.7015050378794321 17.7718585822512658
 13.7199999999999989  9.7015050378794321 17.7718585822512658
  1.9600000000000000 12.4733636201306979 17.7718585822512658
  5.8799999999999999 12.4733636201306979 17.7718585822512658
  9.8000000000000007 12.4733636201306979 17.7718585822512658
 13.7199999999999989 12.4733636201306979 17.7718585822512658
  0.0000000000000000  0.0000000000000000 19.1577878733768969
  3.9199999999999999  0.0000000000000000 19.1577878733768969
  7.8399999999999999  0.0000000000000000 19.1577878733768969
 11.7599999999999998  0.0000000000000000 19.1577878733768969
  0.0000000000000000  2.7718585822512662 19.1577878733768969
  3.9199999999999999  2.7718585822512662 19.1577878733768969
  7.8399999999999999  2.7718585822512662 19.1577878733768969
 11.7599999999999998  2.7718585822512662 19.1577878733768969
  0.0000000000000000  5.5437171645025325 19.1577878733768969
  3.9199999999999999  5.5437171645025325 19.1577878733768969
  7.8399999999999999  5.5437171645025325 19.1577878733768969
 11.7599999999999998  5.5437171645025325 19.1577878733768969
  0.0000000000000000  8.3155757467537992 19.1577878733768969
  3.9199999999999999  8.3155757467537992 19.1577878733768969
  7.8399999999999999  8.3155757467537992 19.1577878733768969
 11.7599999999999998  8.3155757467537992 19.1577878733768969
  0.0000000000000000 11.0874343290050650 19.1577878733768969
  3.9199999999999999 11.0874343290050650 19.1577878733768969
  7.8399999999999999 11.0874343290050650 19.1577878733768969
 11.7599999999999998 11.0874343290050650 19.1577878733768969
